c SAT Generator for power-law distributed variable frequencies
c -g u -v 20 -c 91 -k 3 -p 2.750000 -b 3.200000 -f /home/schmidt/Devel/ni-kop-sat/data/ensemble/ruf20-91/ruf20-91-520 -u 1 -U 1 -s 3184291392
p cnf 20 91
11 -19 -20 0
1 -6 7 0
-1 -10 18 0
13 15 -20 0
-2 3 20 0
4 -11 -17 0
5 7 19 0
-2 -12 -14 0
1 9 15 0
-10 14 -20 0
10 -16 19 0
1 -17 -19 0
-2 -11 20 0
-2 11 12 0
11 12 -14 0
-1 4 6 0
8 -13 16 0
4 12 -14 0
-7 -15 19 0
10 14 -18 0
-2 -9 14 0
-7 9 16 0
2 10 -15 0
-3 9 -10 0
-3 11 -16 0
-9 16 17 0
7 -13 14 0
-2 16 19 0
-4 -7 15 0
11 -15 -17 0
1 -8 9 0
1 5 11 0
8 9 -20 0
7 13 18 0
-1 -2 4 0
4 5 -20 0
-6 10 -11 0
-11 12 -14 0
5 11 -12 0
-8 -11 -15 0
3 19 -20 0
4 5 12 0
-5 16 -17 0
-6 -11 -14 0
-3 5 -10 0
-5 -18 20 0
-1 10 12 0
1 11 15 0
-15 -16 19 0
-1 11 -19 0
3 -10 15 0
-13 15 -19 0
2 5 -11 0
-12 -15 20 0
3 -8 -10 0
10 13 -17 0
-4 -8 13 0
8 9 -15 0
-11 16 -20 0
2 -4 -18 0
7 -8 -12 0
1 3 -8 0
-1 4 17 0
-12 16 -18 0
1 -12 17 0
-12 -17 20 0
-5 9 16 0
6 12 13 0
4 9 12 0
3 13 -15 0
7 -8 -9 0
8 16 -18 0
13 -16 -17 0
5 6 18 0
11 -14 -15 0
2 -7 15 0
2 13 -19 0
-5 -9 10 0
-11 -12 20 0
-4 8 -10 0
-4 7 13 0
4 -10 16 0
-5 19 20 0
7 -8 17 0
8 9 18 0
-2 11 13 0
10 14 -19 0
11 14 20 0
9 10 -13 0
-2 -7 -17 0
-3 10 -13 0
